122 4
14 12 13 9
0 0 0 0 0 3 2 3 4
6 9 0 0 0 3 12 65 75
4 0 0 4 0 3 5 6 10
2 2 0 0 0 3 8 9 13
2 0 0 6 0 3 25 26 99
3 1 0 0 0 3 7 21 38
10 6 0 0 0 1 11
2 0 6 0 0 3 15 23 60
7 0 7 0 0 3 16 59 110
4 10 0 0 0 3 19 53 71
6 3 0 0 0 1 18
4 0 0 9 0 3 14 17 20
7 0 1 0 0 3 33 44 78
4 0 0 0 4 3 32 34 66
10 0 0 0 1 3 22 30 39
9 0 0 0 5 1 28
1 0 0 5 0 3 19 24 51
9 0 0 10 0 3 33 61 73
10 0 8 0 0 1 83
5 0 0 0 6 2 58 76
9 5 0 0 0 3 46 69 106
8 7 0 0 0 3 56 77 97
3 9 0 0 0 3 27 29 35
3 9 0 0 0 1 25
7 10 0 0 0 2 85 101
8 0 0 6 0 1 77
10 0 0 9 0 1 90
9 4 0 0 0 1 37
5 0 5 0 0 1 31
2 0 2 0 0 2 37 42
10 0 0 0 1 1 96
6 0 0 3 0 2 43 48
9 0 0 3 0 3 36 41 45
10 0 0 0 4 1 55
6 0 0 9 0 2 48 64
9 0 5 0 0 1 43
10 8 0 0 0 1 100
9 0 0 0 4 3 47 72 95
2 0 0 0 6 2 40 54
8 4 0 0 0 1 74
2 0 0 0 1 1 116
2 9 0 0 0 1 75
2 0 0 0 2 2 49 77
8 0 7 0 0 1 91
2 3 0 0 0 1 71
2 0 6 0 0 2 57 70
1 0 0 6 0 1 58
2 0 0 0 7 1 78
7 0 0 0 3 2 50 52
5 9 0 0 0 1 110
7 0 0 0 3 3 67 91 98
2 0 0 3 0 1 63
9 3 0 0 0 1 54
9 0 0 0 1 1 88
1 0 0 7 0 2 62 105
10 0 6 0 0 2 59 103
10 0 0 2 0 1 121
8 0 3 0 0 1 87
9 4 0 0 0 2 80 113
3 0 8 0 0 1 71
4 0 0 0 4 2 68 111
2 0 0 0 5 1 67
7 0 4 0 0 1 74
10 0 0 9 0 1 109
2 4 0 0 0 1 93
5 4 0 0 0 1 106
5 2 0 0 0 1 79
3 0 3 0 0 1 93
2 0 0 10 0 1 104
6 0 0 0 5 2 95 98
3 0 6 0 0 1 81
7 5 0 0 0 2 84 86
6 2 0 0 0 3 79 94 115
1 2 0 0 0 3 87 91 98
7 5 0 0 0 1 112
5 0 0 0 6 1 112
4 0 6 0 0 1 86
5 0 0 2 0 1 112
6 0 0 0 7 2 82 113
10 0 4 0 0 1 89
1 7 0 0 0 1 103
9 0 0 4 0 1 102
1 0 0 0 5 1 118
8 0 10 0 0 1 114
6 0 0 0 5 1 108
9 3 0 0 0 1 92
2 3 0 0 0 1 105
7 0 0 10 0 1 90
3 0 0 8 0 1 107
7 9 0 0 0 1 100
10 0 0 0 5 1 102
1 0 0 0 4 1 117
5 8 0 0 0 1 100
5 4 0 0 0 1 118
3 0 0 0 2 1 118
1 0 0 9 0 1 99
3 0 9 0 0 1 107
5 4 0 0 0 1 114
5 0 6 0 0 1 103
10 0 0 0 6 1 119
6 0 0 0 1 1 111
5 0 0 0 7 1 107
8 9 0 0 0 1 105
10 5 0 0 0 1 115
10 0 3 0 0 1 115
6 6 0 0 0 1 109
2 0 0 10 0 1 116
2 3 0 0 0 1 121
2 3 0 0 0 1 119
10 7 0 0 0 1 113
1 8 0 0 0 1 119
3 0 0 8 0 1 116
4 0 0 0 6 1 117
5 3 0 0 0 1 120
9 5 0 0 0 1 120
3 0 4 0 0 1 117
1 0 0 4 0 1 121
10 0 9 0 0 1 120
3 0 0 0 7 1 122
8 0 7 0 0 1 122
9 6 0 0 0 1 122
0 0 0 0 0 0
